122     4       
20      19      24      22      
0       0       0       0       0       3       2       3       4       
10      9       0       0       0       3       8       49      93      
1       6       0       0       0       3       5       7       14      
5       7       0       0       0       3       6       11      29      
3       4       0       0       0       1       109     
6       0       0       0       3       3       9       20      25      
9       0       0       0       5       3       12      13      16      
4       0       6       0       0       2       10      22      
9       10      0       0       0       1       34      
3       0       0       0       6       3       15      27      31      
6       0       0       0       3       3       33      40      59      
5       0       0       0       4       2       18      99      
2       0       0       9       0       3       30      63      91      
2       3       0       0       0       1       61      
3       0       0       0       6       2       21      37      
8       4       0       0       0       3       17      19      35      
1       0       4       0       0       1       62      
7       0       0       0       8       3       23      26      43      
5       0       0       3       0       3       38      41      79      
3       9       0       0       0       1       24      
6       0       0       0       8       1       34      
4       3       0       0       0       1       75      
7       0       0       2       0       1       73      
7       0       0       5       0       1       66      
2       0       0       2       0       1       44      
8       6       0       0       0       3       42      48      50      
2       0       0       9       0       3       28      39      52      
10      0       5       0       0       1       36      
4       0       0       7       0       1       32      
4       0       0       5       0       3       56      61      119     
3       0       9       0       0       2       53      105     
5       0       0       3       0       3       54      67      90      
7       0       1       0       0       2       78      88      
8       10      0       0       0       1       52      
2       8       0       0       0       1       51      
10      0       5       0       0       2       97      98      
10      0       2       0       0       2       57      87      
1       8       0       0       0       2       81      92      
3       0       9       0       0       1       50      
2       0       0       0       6       3       60      64      76      
7       4       0       0       0       3       68      72      77      
2       0       9       0       0       3       46      65      114     
3       0       0       0       2       1       45      
1       0       0       0       3       2       47      114     
5       0       0       0       10      3       69      94      100     
7       0       0       0       8       2       55      107     
3       10      0       0       0       1       81      
2       5       0       0       0       1       111     
8       0       0       0       1       1       96      
1       0       0       10      0       1       102     
9       0       0       4       0       2       56      112     
10      0       0       1       0       1       79      
2       0       0       0       5       1       89      
9       0       0       3       0       2       83      121     
10      0       0       7       0       1       110     
10      0       0       0       8       1       89      
5       0       0       6       0       2       58      89      
3       0       0       0       5       1       118     
6       0       5       0       0       1       81      
10      0       0       0       4       1       99      
7       0       0       0       10      1       84      
7       0       8       0       0       2       85      106     
8       4       0       0       0       1       113     
10      3       0       0       0       1       71      
8       0       0       0       1       1       70      
5       0       3       0       0       2       71      74      
5       0       0       0       3       1       68      
2       0       0       0       2       1       103     
5       1       0       0       0       2       70      80      
2       0       0       6       0       1       85      
6       0       0       7       0       1       73      
6       0       0       1       0       1       80      
9       0       6       0       0       1       94      
10      0       0       9       0       2       86      92      
10      0       0       0       6       1       101     
6       0       0       0       3       1       93      
4       0       7       0       0       1       82      
2       3       0       0       0       1       94      
8       0       0       5       0       1       114     
5       0       0       0       4       3       82      95      115     
1       6       0       0       0       1       85      
1       10      0       0       0       1       105     
8       0       0       5       0       1       101     
6       0       0       0       7       1       90      
7       0       0       0       3       1       88      
3       0       0       8       0       1       100     
6       0       0       6       0       1       102     
9       0       8       0       0       1       101     
9       9       0       0       0       1       97      
3       3       0       0       0       1       103     
7       0       7       0       0       2       103     117     
2       0       0       0       6       1       111     
10      0       2       0       0       1       99      
7       0       1       0       0       1       118     
6       0       0       0       3       1       108     
5       6       0       0       0       1       118     
8       0       0       10      0       1       106     
4       0       0       1       0       2       109     111     
7       9       0       0       0       1       104     
1       0       0       0       9       1       104     
3       0       0       7       0       1       108     
8       0       10      0       0       1       115     
8       0       0       4       0       1       113     
9       5       0       0       0       1       106     
8       0       6       0       0       1       108     
1       0       0       0       4       2       110     115     
4       1       0       0       0       1       116     
4       0       0       0       9       1       120     
2       0       0       0       5       1       110     
6       0       0       0       10      1       117     
4       0       0       3       0       1       113     
4       0       0       0       2       1       116     
10      0       0       0       8       1       120     
6       0       0       0       9       1       120     
3       9       0       0       0       1       116     
2       0       9       0       0       1       117     
6       0       0       0       1       1       121     
2       0       0       8       0       1       121     
5       2       0       0       0       1       122     
2       7       0       0       0       1       122     
6       0       7       0       0       1       122     
0       0       0       0       0       0       